unsat
(:conflicts            1
 :max-generation       1
 :max-memory           22.26
 :memory               20.82
 :mk-bool-var          255
 :mk-clause            29
 :mk-clause-binary     115
 :num-allocs           2904730
 :num-checks           1
 :quant-instantiations 31
 :rlimit-count         42839
 :time                 0.01)
